15 38 85
1 4 3
1 5 1
1 8 1
1 9 2
1 12 3
1 14 3
1 15 1
2 6 2
2 14 1
3 5 4
3 10 5
4 6 2
4 11 3
4 12 3
4 13 3
5 7 2
5 8 5
5 11 3
6 7 1
6 9 2
6 11 5
6 14 5
6 15 3
7 8 4
7 11 3
7 12 2
8 9 2
8 10 5
9 10 5
9 11 5
9 12 5
9 13 1
9 15 2
10 11 3
11 13 2
12 15 2
13 14 2
14 15 1
